NAME: rand_1/map9_72
TYPE: TSP
COMMENT: autogenerated using a wonderful map creator
DIMENSION: 96
EDGE_WEIGHT_TYPE: EUC_2D
NODE_COORD_SECTION
1 3.0 5.0
2 79.0 2.0
3 1.0 2.0
4 80.0 9.0
5 80.0 4.0
6 2.0 8.0
7 78.0 3.0
8 4.0 4.0
9 1.0 1.0
10 82.0 8.0
11 79.0 8.0
12 81.0 7.0
13 82.0 1.0
14 2.0 7.0
15 4.0 1.0
16 1.0 6.0
17 2.0 6.0
18 81.0 8.0
19 3.0 4.0
20 5.0 3.0
21 1.0 3.0
22 5.0 4.0
23 79.0 6.0
24 80.0 3.0
25 80.0 2.0
26 1.0 8.0
27 2.0 9.0
28 5.0 9.0
29 3.0 8.0
30 80.0 6.0
31 82.0 5.0
32 78.0 8.0
33 4.0 7.0
34 5.0 2.0
35 81.0 4.0
36 3.0 2.0
37 82.0 7.0
38 3.0 7.0
39 2.0 3.0
40 81.0 5.0
41 3.0 9.0
42 4.0 9.0
43 3.0 3.0
44 78.0 4.0
45 5.0 1.0
46 5.0 8.0
47 5.0 7.0
48 1.0 4.0
49 53.0 5.0
50 64.0 5.0
51 66.0 5.0
52 46.0 2.0
53 13.0 8.0
54 70.0 2.0
55 28.0 5.0
56 19.0 2.0
57 8.0 2.0
58 52.0 8.0
59 54.0 8.0
60 36.0 2.0
61 27.0 8.0
62 14.0 8.0
63 49.0 2.0
64 16.0 8.0
65 73.0 5.0
66 18.0 5.0
67 53.0 2.0
68 31.0 8.0
69 22.0 5.0
70 36.0 4.0
71 11.0 2.0
72 75.0 5.0
73 44.0 8.0
74 35.0 5.0
75 47.0 6.0
76 36.0 6.0
77 14.0 3.0
78 37.0 5.0
79 58.0 3.0
80 69.0 3.0
81 74.0 8.0
82 61.0 8.0
83 34.0 2.0
84 23.0 8.0
85 12.0 8.0
86 25.0 8.0
87 16.0 5.0
88 57.0 8.0
89 61.0 5.0
90 43.0 8.0
91 30.0 8.0
92 10.0 5.0
93 54.0 2.0
94 21.0 8.0
95 67.0 5.0
96 69.0 2.0
97 58.0 2.0
98 27.0 5.0
99 40.0 5.0
100 31.0 2.0
101 20.0 2.0
102 14.0 4.0
103 55.0 5.0
104 69.0 4.0
105 58.0 4.0
106 44.0 2.0
107 25.0 7.0
108 48.0 2.0
109 15.0 8.0
110 26.0 8.0
111 72.0 5.0
112 50.0 2.0
113 17.0 8.0
114 30.0 5.0
115 74.0 5.0
116 32.0 8.0
117 67.0 2.0
118 56.0 8.0
119 45.0 8.0
120 47.0 5.0
START_DEPOT_SECTION
1
2
3
4
5
6
7
8
9
10
11
12
13
14
15
16
17
18
19
20
21
22
23
24
-1
END_DEPOT_SECTION
25
26
27
28
29
30
31
32
33
34
35
36
37
38
39
40
41
42
43
44
45
46
47
48
-1
EOF
